c description: Random 5-CNF over 15 variables and 30 clauses
c generator: CNFgen (0.9.0)
c copyright: (C) 2012-2020 Massimo Lauria <massimo.lauria@uniroma1.it>
c url: https://massimolauria.net/cnfgen
c
p cnf 15 30
-2 3 -9 14 15 0
-2 3 -9 -10 13 0
-1 -2 -8 10 -12 0
4 -7 8 -12 13 0
-1 -3 -10 12 -14 0
6 -10 -11 13 -14 0
-3 -7 -9 13 -15 0
6 7 -10 12 -13 0
-1 -5 7 -8 11 0
1 -8 -9 -10 -12 0
-5 8 -11 12 -13 0
6 7 9 11 -14 0
4 -6 7 -8 -14 0
3 8 -9 -12 -14 0
-1 3 6 -12 -14 0
-4 -6 9 -13 -15 0
-2 7 -8 -12 -15 0
3 7 -8 9 12 0
-5 8 10 -14 15 0
-5 7 -13 -14 15 0
2 4 -9 10 -12 0
2 10 -12 13 -15 0
2 5 7 9 -13 0
3 8 10 -13 -15 0
7 9 -10 12 -13 0
-1 -3 5 11 14 0
1 2 13 14 -15 0
-5 -6 7 -8 11 0
2 8 9 -10 -12 0
2 3 4 -8 10 0